p cnf 259 1281
45 87 92 0
58 82 107 111 0
36 86 94 0
100 116 204 215 0
66 74 75 0
65 148 159 0
57 165 0
63 180 0
56 130 0
105 120 184 187 0
81 91 123 129 241 257 0
70 78 136 146 189 0
61 140 141 0
97 144 145 149 151 0
19 153 154 0
119 122 125 127 132 156 0
9 50 51 52 53 158 0
6 46 47 0
4 39 41 0
34 54 84 0
32 103 0
30 31 68 89 0
25 26 29 73 76 0
24 95 143 0
21 23 152 0
20 118 155 0
37 40 0
16 17 106 109 0
15 102 0
28 71 0
13 59 138 0
11 12 18 117 0
49 157 0
5 7 8 10 0
3 42 43 62 0
2 114 126 246 0
90 98 101 110 0
22 96 0
202 213 0
160 162 163 0
166 169 171 0
173 174 243 0
176 177 178 0
179 181 182 0
124 131 133 0
185 188 0
135 147 150 190 191 0
-107 -192 0
-33 -192 0
-74 -192 0
-192 -193 0
-33 -107 0
-74 -107 0
-107 -193 0
-33 -74 0
-33 -193 0
-74 -193 0
-123 -189 0
-61 -123 0
-119 -123 0
-123 -158 0
-61 -189 0
-119 -189 0
-158 -189 0
-61 -119 0
-61 -158 0
-119 -158 0
-4 -194 0
-54 -194 0
-89 -194 0
-29 -194 0
-4 -54 0
-4 -89 0
-4 -29 0
-54 -89 0
-29 -54 0
-29 -89 0
-10 -48 0
-10 -195 0
-2 -10 0
-10 -98 0
-48 -195 0
-2 -48 0
-48 -98 0
-2 -195 0
-98 -195 0
-2 -98 0
-27 -196 0
-27 -198 0
-27 -199 0
-27 -166 0
-196 -198 0
-196 -199 0
-166 -196 0
-198 -199 0
-166 -198 0
-166 -199 0
-123 -192 0
-192 -194 0
-10 -192 0
-27 -192 0
-123 -194 0
-10 -123 0
-27 -123 0
-10 -194 0
-27 -194 0
-10 -27 0
-107 -189 0
-4 -107 0
-48 -107 0
-107 -196 0
-4 -189 0
-48 -189 0
-189 -196 0
-4 -48 0
-4 -196 0
-48 -196 0
-33 -61 0
-33 -54 0
-33 -195 0
-33 -198 0
-54 -61 0
-61 -195 0
-61 -198 0
-54 -195 0
-54 -198 0
-195 -198 0
-74 -119 0
-74 -89 0
-2 -74 0
-74 -199 0
-89 -119 0
-2 -119 0
-119 -199 0
-2 -89 0
-89 -199 0
-2 -199 0
-158 -193 0
-29 -193 0
-98 -193 0
-166 -193 0
-29 -158 0
-98 -158 0
-158 -166 0
-29 -98 0
-29 -166 0
-98 -166 0
-45 -111 0
-36 -45 0
-45 -201 0
-45 -204 0
-45 -203 0
-36 -111 0
-111 -201 0
-111 -204 0
-111 -203 0
-36 -201 0
-36 -204 0
-36 -203 0
-201 -204 0
-201 -203 0
-203 -204 0
-159 -168 0
-159 -161 0
-159 -206 0
-159 -170 0
-159 -207 0
-161 -168 0
-168 -206 0
-168 -170 0
-168 -207 0
-161 -206 0
-161 -170 0
-161 -207 0
-170 -206 0
-206 -207 0
-170 -207 0
-78 -105 0
-72 -105 0
-105 -140 0
-105 -144 0
-53 -105 0
-72 -78 0
-78 -140 0
-78 -144 0
-53 -78 0
-72 -140 0
-72 -144 0
-53 -72 0
-140 -144 0
-53 -140 0
-53 -144 0
-23 -67 0
-67 -118 0
-67 -208 0
-67 -209 0
-17 -67 0
-23 -118 0
-23 -208 0
-23 -209 0
-17 -23 0
-118 -208 0
-118 -209 0
-17 -118 0
-208 -209 0
-17 -208 0
-17 -209 0
-183 -210 0
-134 -210 0
-28 -210 0
-13 -210 0
-12 -210 0
-134 -183 0
-28 -183 0
-13 -183 0
-12 -183 0
-28 -134 0
-13 -134 0
-12 -134 0
-13 -28 0
-12 -28 0
-12 -13 0
-176 -211 0
-179 -211 0
-124 -211 0
-93 -211 0
-190 -211 0
-176 -179 0
-124 -176 0
-93 -176 0
-176 -190 0
-124 -179 0
-93 -179 0
-179 -190 0
-93 -124 0
-124 -190 0
-93 -190 0
-45 -159 0
-45 -105 0
-45 -67 0
-45 -210 0
-45 -211 0
-105 -159 0
-67 -159 0
-159 -210 0
-159 -211 0
-67 -105 0
-105 -210 0
-105 -211 0
-67 -210 0
-67 -211 0
-210 -211 0
-111 -168 0
-78 -111 0
-23 -111 0
-111 -183 0
-111 -176 0
-78 -168 0
-23 -168 0
-168 -183 0
-168 -176 0
-23 -78 0
-78 -183 0
-78 -176 0
-23 -183 0
-23 -176 0
-176 -183 0
-36 -161 0
-36 -72 0
-36 -118 0
-36 -134 0
-36 -179 0
-72 -161 0
-118 -161 0
-134 -161 0
-161 -179 0
-72 -118 0
-72 -134 0
-72 -179 0
-118 -134 0
-118 -179 0
-134 -179 0
-201 -206 0
-140 -201 0
-201 -208 0
-28 -201 0
-124 -201 0
-140 -206 0
-206 -208 0
-28 -206 0
-124 -206 0
-140 -208 0
-28 -140 0
-124 -140 0
-28 -208 0
-124 -208 0
-28 -124 0
-170 -204 0
-144 -204 0
-204 -209 0
-13 -204 0
-93 -204 0
-144 -170 0
-170 -209 0
-13 -170 0
-93 -170 0
-144 -209 0
-13 -144 0
-93 -144 0
-13 -209 0
-93 -209 0
-13 -93 0
-203 -207 0
-53 -203 0
-17 -203 0
-12 -203 0
-190 -203 0
-53 -207 0
-17 -207 0
-12 -207 0
-190 -207 0
-17 -53 0
-12 -53 0
-53 -190 0
-12 -17 0
-17 -190 0
-12 -190 0
-87 -212 0
-82 -87 0
-86 -87 0
-87 -215 0
-69 -87 0
-87 -214 0
-82 -212 0
-86 -212 0
-212 -215 0
-69 -212 0
-212 -214 0
-82 -86 0
-82 -215 0
-69 -82 0
-82 -214 0
-86 -215 0
-69 -86 0
-86 -214 0
-69 -215 0
-214 -215 0
-69 -214 0
-184 -241 0
-136 -184 0
-184 -186 0
-97 -184 0
-153 -184 0
-50 -184 0
-136 -241 0
-186 -241 0
-97 -241 0
-153 -241 0
-50 -241 0
-136 -186 0
-97 -136 0
-136 -153 0
-50 -136 0
-97 -186 0
-153 -186 0
-50 -186 0
-97 -153 0
-50 -97 0
-50 -153 0
-6 -218 0
-6 -41 0
-6 -219 0
-6 -103 0
-6 -115 0
-6 -76 0
-41 -218 0
-218 -219 0
-103 -218 0
-115 -218 0
-76 -218 0
-41 -219 0
-41 -103 0
-41 -115 0
-41 -76 0
-103 -219 0
-115 -219 0
-76 -219 0
-103 -115 0
-76 -103 0
-76 -115 0
-143 -220 0
-21 -220 0
-20 -220 0
-164 -220 0
-220 -222 0
-16 -220 0
-21 -143 0
-20 -143 0
-143 -164 0
-143 -222 0
-16 -143 0
-20 -21 0
-21 -164 0
-21 -222 0
-16 -21 0
-20 -164 0
-20 -222 0
-16 -20 0
-164 -222 0
-16 -164 0
-16 -222 0
-15 -224 0
-224 -225 0
-224 -226 0
-59 -224 0
-142 -224 0
-117 -224 0
-15 -225 0
-15 -226 0
-15 -59 0
-15 -142 0
-15 -117 0
-225 -226 0
-59 -225 0
-142 -225 0
-117 -225 0
-59 -226 0
-142 -226 0
-117 -226 0
-59 -142 0
-59 -117 0
-117 -142 0
-8 -157 0
-157 -227 0
-43 -157 0
-112 -157 0
-44 -157 0
-110 -157 0
-8 -227 0
-8 -43 0
-8 -112 0
-8 -44 0
-8 -110 0
-43 -227 0
-112 -227 0
-44 -227 0
-110 -227 0
-43 -112 0
-43 -44 0
-43 -110 0
-44 -112 0
-110 -112 0
-44 -110 0
-35 -200 0
-35 -205 0
-35 -96 0
-35 -202 0
-35 -160 0
-35 -169 0
-200 -205 0
-96 -200 0
-200 -202 0
-160 -200 0
-169 -200 0
-96 -205 0
-202 -205 0
-160 -205 0
-169 -205 0
-96 -202 0
-96 -160 0
-96 -169 0
-160 -202 0
-169 -202 0
-160 -169 0
-87 -184 0
-6 -87 0
-87 -220 0
-87 -224 0
-87 -157 0
-35 -87 0
-6 -184 0
-184 -220 0
-184 -224 0
-157 -184 0
-35 -184 0
-6 -220 0
-6 -224 0
-6 -157 0
-6 -35 0
-220 -224 0
-157 -220 0
-35 -220 0
-157 -224 0
-35 -224 0
-35 -157 0
-212 -241 0
-212 -218 0
-143 -212 0
-15 -212 0
-8 -212 0
-200 -212 0
-218 -241 0
-143 -241 0
-15 -241 0
-8 -241 0
-200 -241 0
-143 -218 0
-15 -218 0
-8 -218 0
-200 -218 0
-15 -143 0
-8 -143 0
-143 -200 0
-8 -15 0
-15 -200 0
-8 -200 0
-82 -136 0
-41 -82 0
-21 -82 0
-82 -225 0
-82 -227 0
-82 -205 0
-41 -136 0
-21 -136 0
-136 -225 0
-136 -227 0
-136 -205 0
-21 -41 0
-41 -225 0
-41 -227 0
-41 -205 0
-21 -225 0
-21 -227 0
-21 -205 0
-225 -227 0
-205 -225 0
-205 -227 0
-86 -186 0
-86 -219 0
-20 -86 0
-86 -226 0
-43 -86 0
-86 -96 0
-186 -219 0
-20 -186 0
-186 -226 0
-43 -186 0
-96 -186 0
-20 -219 0
-219 -226 0
-43 -219 0
-96 -219 0
-20 -226 0
-20 -43 0
-20 -96 0
-43 -226 0
-96 -226 0
-43 -96 0
-97 -215 0
-103 -215 0
-164 -215 0
-59 -215 0
-112 -215 0
-202 -215 0
-97 -103 0
-97 -164 0
-59 -97 0
-97 -112 0
-97 -202 0
-103 -164 0
-59 -103 0
-103 -112 0
-103 -202 0
-59 -164 0
-112 -164 0
-164 -202 0
-59 -112 0
-59 -202 0
-112 -202 0
-69 -153 0
-69 -115 0
-69 -222 0
-69 -142 0
-44 -69 0
-69 -160 0
-115 -153 0
-153 -222 0
-142 -153 0
-44 -153 0
-153 -160 0
-115 -222 0
-115 -142 0
-44 -115 0
-115 -160 0
-142 -222 0
-44 -222 0
-160 -222 0
-44 -142 0
-142 -160 0
-44 -160 0
-50 -214 0
-76 -214 0
-16 -214 0
-117 -214 0
-110 -214 0
-169 -214 0
-50 -76 0
-16 -50 0
-50 -117 0
-50 -110 0
-50 -169 0
-16 -76 0
-76 -117 0
-76 -110 0
-76 -169 0
-16 -117 0
-16 -110 0
-16 -169 0
-110 -117 0
-117 -169 0
-110 -169 0
-92 -228 0
-58 -92 0
-92 -116 0
-92 -229 0
-75 -92 0
-92 -230 0
-58 -228 0
-116 -228 0
-228 -229 0
-75 -228 0
-228 -230 0
-58 -116 0
-58 -229 0
-58 -75 0
-58 -230 0
-116 -229 0
-75 -116 0
-116 -230 0
-75 -229 0
-229 -230 0
-75 -230 0
-57 -65 0
-65 -231 0
-65 -232 0
-63 -65 0
-65 -130 0
-65 -233 0
-57 -231 0
-57 -232 0
-57 -63 0
-57 -130 0
-57 -233 0
-231 -232 0
-63 -231 0
-130 -231 0
-231 -233 0
-63 -232 0
-130 -232 0
-232 -233 0
-63 -130 0
-63 -233 0
-130 -233 0
-129 -187 0
-146 -187 0
-145 -187 0
-154 -187 0
-122 -187 0
-52 -187 0
-129 -146 0
-129 -145 0
-129 -154 0
-122 -129 0
-52 -129 0
-145 -146 0
-146 -154 0
-122 -146 0
-52 -146 0
-145 -154 0
-122 -145 0
-52 -145 0
-122 -154 0
-52 -154 0
-52 -122 0
-95 -234 0
-152 -234 0
-234 -235 0
-234 -236 0
-40 -234 0
-106 -234 0
-95 -152 0
-95 -235 0
-95 -236 0
-40 -95 0
-95 -106 0
-152 -235 0
-152 -236 0
-40 -152 0
-106 -152 0
-235 -236 0
-40 -235 0
-106 -235 0
-40 -236 0
-106 -236 0
-40 -106 0
-102 -175 0
-121 -175 0
-138 -175 0
-175 -237 0
-175 -238 0
-18 -175 0
-102 -121 0
-102 -138 0
-102 -237 0
-102 -238 0
-18 -102 0
-121 -138 0
-121 -237 0
-121 -238 0
-18 -121 0
-138 -237 0
-138 -238 0
-18 -138 0
-237 -238 0
-18 -237 0
-18 -238 0
-85 -239 0
-85 -216 0
-85 -213 0
-85 -162 0
-85 -240 0
-85 -171 0
-216 -239 0
-213 -239 0
-162 -239 0
-239 -240 0
-171 -239 0
-213 -216 0
-162 -216 0
-216 -240 0
-171 -216 0
-162 -213 0
-213 -240 0
-171 -213 0
-162 -240 0
-162 -171 0
-171 -240 0
-38 -173 0
-38 -177 0
-38 -137 0
-38 -185 0
-38 -242 0
-38 -135 0
-173 -177 0
-137 -173 0
-173 -185 0
-173 -242 0
-135 -173 0
-137 -177 0
-177 -185 0
-177 -242 0
-135 -177 0
-137 -185 0
-137 -242 0
-135 -137 0
-185 -242 0
-135 -185 0
-135 -242 0
-65 -92 0
-92 -187 0
-92 -234 0
-92 -175 0
-85 -92 0
-38 -92 0
-65 -187 0
-65 -234 0
-65 -175 0
-65 -85 0
-38 -65 0
-187 -234 0
-175 -187 0
-85 -187 0
-38 -187 0
-175 -234 0
-85 -234 0
-38 -234 0
-85 -175 0
-38 -175 0
-38 -85 0
-57 -228 0
-129 -228 0
-95 -228 0
-102 -228 0
-228 -239 0
-173 -228 0
-57 -129 0
-57 -95 0
-57 -102 0
-57 -239 0
-57 -173 0
-95 -129 0
-102 -129 0
-129 -239 0
-129 -173 0
-95 -102 0
-95 -239 0
-95 -173 0
-102 -239 0
-102 -173 0
-173 -239 0
-58 -231 0
-58 -146 0
-58 -152 0
-58 -121 0
-58 -216 0
-58 -177 0
-146 -231 0
-152 -231 0
-121 -231 0
-216 -231 0
-177 -231 0
-146 -152 0
-121 -146 0
-146 -216 0
-146 -177 0
-121 -152 0
-152 -216 0
-152 -177 0
-121 -216 0
-121 -177 0
-177 -216 0
-116 -232 0
-116 -145 0
-116 -235 0
-116 -138 0
-116 -213 0
-116 -137 0
-145 -232 0
-232 -235 0
-138 -232 0
-213 -232 0
-137 -232 0
-145 -235 0
-138 -145 0
-145 -213 0
-137 -145 0
-138 -235 0
-213 -235 0
-137 -235 0
-138 -213 0
-137 -138 0
-137 -213 0
-63 -229 0
-154 -229 0
-229 -236 0
-229 -237 0
-162 -229 0
-185 -229 0
-63 -154 0
-63 -236 0
-63 -237 0
-63 -162 0
-63 -185 0
-154 -236 0
-154 -237 0
-154 -162 0
-154 -185 0
-236 -237 0
-162 -236 0
-185 -236 0
-162 -237 0
-185 -237 0
-162 -185 0
-75 -130 0
-75 -122 0
-40 -75 0
-75 -238 0
-75 -240 0
-75 -242 0
-122 -130 0
-40 -130 0
-130 -238 0
-130 -240 0
-130 -242 0
-40 -122 0
-122 -238 0
-122 -240 0
-122 -242 0
-40 -238 0
-40 -240 0
-40 -242 0
-238 -240 0
-238 -242 0
-240 -242 0
-230 -233 0
-52 -230 0
-106 -230 0
-18 -230 0
-171 -230 0
-135 -230 0
-52 -233 0
-106 -233 0
-18 -233 0
-171 -233 0
-135 -233 0
-52 -106 0
-18 -52 0
-52 -171 0
-52 -135 0
-18 -106 0
-106 -171 0
-106 -135 0
-18 -171 0
-18 -135 0
-135 -171 0
-148 -244 0
-148 -180 0
-148 -251 0
-180 -244 0
-244 -251 0
-180 -251 0
-47 -84 0
-47 -99 0
-26 -47 0
-84 -99 0
-26 -84 0
-26 -99 0
-197 -245 0
-167 -197 0
-109 -197 0
-167 -245 0
-109 -245 0
-109 -167 0
-64 -131 0
-64 -188 0
-64 -147 0
-131 -188 0
-131 -147 0
-147 -188 0
-47 -148 0
-148 -197 0
-64 -148 0
-47 -197 0
-47 -64 0
-64 -197 0
-84 -244 0
-244 -245 0
-131 -244 0
-84 -245 0
-84 -131 0
-131 -245 0
-99 -180 0
-167 -180 0
-180 -188 0
-99 -167 0
-99 -188 0
-167 -188 0
-26 -251 0
-109 -251 0
-147 -251 0
-26 -109 0
-26 -147 0
-109 -147 0
-94 -247 0
-100 -247 0
-66 -247 0
-247 -249 0
-94 -100 0
-66 -94 0
-94 -249 0
-66 -100 0
-100 -249 0
-66 -249 0
-14 -257 0
-149 -257 0
-125 -257 0
-51 -257 0
-14 -149 0
-14 -125 0
-14 -51 0
-125 -149 0
-51 -149 0
-51 -125 0
-108 -250 0
-32 -250 0
-31 -250 0
-73 -250 0
-32 -108 0
-31 -108 0
-73 -108 0
-31 -32 0
-32 -73 0
-31 -73 0
-3 -7 0
-7 -55 0
-7 -126 0
-7 -90 0
-3 -55 0
-3 -126 0
-3 -90 0
-55 -126 0
-55 -90 0
-90 -126 0
-181 -243 0
-243 -252 0
-243 -253 0
-191 -243 0
-181 -252 0
-181 -253 0
-181 -191 0
-252 -253 0
-191 -252 0
-191 -253 0
-247 -257 0
-247 -250 0
-7 -247 0
-243 -247 0
-250 -257 0
-7 -257 0
-243 -257 0
-7 -250 0
-243 -250 0
-7 -243 0
-14 -94 0
-94 -108 0
-3 -94 0
-94 -181 0
-14 -108 0
-3 -14 0
-14 -181 0
-3 -108 0
-108 -181 0
-3 -181 0
-100 -149 0
-32 -100 0
-55 -100 0
-100 -252 0
-32 -149 0
-55 -149 0
-149 -252 0
-32 -55 0
-32 -252 0
-55 -252 0
-66 -125 0
-31 -66 0
-66 -126 0
-66 -253 0
-31 -125 0
-125 -126 0
-125 -253 0
-31 -126 0
-31 -253 0
-126 -253 0
-51 -249 0
-73 -249 0
-90 -249 0
-191 -249 0
-51 -73 0
-51 -90 0
-51 -191 0
-73 -90 0
-73 -191 0
-90 -191 0
-60 -70 0
-70 -141 0
-70 -156 0
-9 -70 0
-60 -141 0
-60 -156 0
-9 -60 0
-141 -156 0
-9 -141 0
-9 -156 0
-39 -113 0
-34 -39 0
-30 -39 0
-25 -39 0
-34 -113 0
-30 -113 0
-25 -113 0
-30 -34 0
-25 -34 0
-25 -30 0
-79 -254 0
-71 -254 0
-254 -255 0
-11 -254 0
-71 -79 0
-79 -255 0
-11 -79 0
-71 -255 0
-11 -71 0
-11 -255 0
-62 -256 0
-248 -256 0
-246 -256 0
-101 -256 0
-62 -248 0
-62 -246 0
-62 -101 0
-246 -248 0
-101 -248 0
-101 -246 0
-178 -182 0
-133 -178 0
-178 -258 0
-150 -178 0
-133 -182 0
-182 -258 0
-150 -182 0
-133 -258 0
-133 -150 0
-150 -258 0
-39 -70 0
-70 -254 0
-70 -256 0
-70 -178 0
-39 -254 0
-39 -256 0
-39 -178 0
-254 -256 0
-178 -254 0
-178 -256 0
-60 -113 0
-60 -79 0
-60 -62 0
-60 -182 0
-79 -113 0
-62 -113 0
-113 -182 0
-62 -79 0
-79 -182 0
-62 -182 0
-34 -141 0
-71 -141 0
-141 -248 0
-133 -141 0
-34 -71 0
-34 -248 0
-34 -133 0
-71 -248 0
-71 -133 0
-133 -248 0
-30 -156 0
-156 -255 0
-156 -246 0
-156 -258 0
-30 -255 0
-30 -246 0
-30 -258 0
-246 -255 0
-255 -258 0
-246 -258 0
-9 -25 0
-9 -11 0
-9 -101 0
-9 -150 0
-11 -25 0
-25 -101 0
-25 -150 0
-11 -101 0
-11 -150 0
-101 -150 0
-81 -120 0
-120 -139 0
-19 -120 0
-120 -127 0
-81 -139 0
-19 -81 0
-81 -127 0
-19 -139 0
-127 -139 0
-19 -127 0
-46 -88 0
-46 -83 0
-46 -128 0
-46 -68 0
-83 -88 0
-88 -128 0
-68 -88 0
-83 -128 0
-68 -83 0
-68 -128 0
-24 -217 0
-155 -217 0
-172 -217 0
-37 -217 0
-24 -155 0
-24 -172 0
-24 -37 0
-155 -172 0
-37 -155 0
-37 -172 0
-5 -49 0
-42 -49 0
-49 -104 0
-49 -114 0
-5 -42 0
-5 -104 0
-5 -114 0
-42 -104 0
-42 -114 0
-104 -114 0
-77 -221 0
-22 -77 0
-77 -163 0
-77 -223 0
-22 -221 0
-163 -221 0
-221 -223 0
-22 -163 0
-22 -223 0
-163 -223 0
-46 -120 0
-120 -217 0
-49 -120 0
-77 -120 0
-46 -217 0
-46 -49 0
-46 -77 0
-49 -217 0
-77 -217 0
-49 -77 0
-81 -88 0
-24 -81 0
-5 -81 0
-81 -221 0
-24 -88 0
-5 -88 0
-88 -221 0
-5 -24 0
-24 -221 0
-5 -221 0
-83 -139 0
-139 -155 0
-42 -139 0
-22 -139 0
-83 -155 0
-42 -83 0
-22 -83 0
-42 -155 0
-22 -155 0
-22 -42 0
-19 -128 0
-19 -172 0
-19 -104 0
-19 -163 0
-128 -172 0
-104 -128 0
-128 -163 0
-104 -172 0
-163 -172 0
-104 -163 0
-68 -127 0
-37 -127 0
-114 -127 0
-127 -223 0
-37 -68 0
-68 -114 0
-68 -223 0
-37 -114 0
-37 -223 0
-114 -223 0
-165 -259 0
-56 -165 0
-56 -259 0
-91 -151 0
-91 -132 0
-132 -151 0
-1 -174 0
-80 -174 0
-1 -80 0
-91 -165 0
-165 -174 0
-91 -174 0
-151 -259 0
-1 -259 0
-1 -151 0
-56 -132 0
-56 -80 0
-80 -132 0
